ICHARG = 2
PREC = Accurate
EDIFF = 1e-5
LORBIT = 11
EDIFFG = -0.01
ENCUT=400
IBRION =2
ISIF = 2
NSW= 1000
ISMEAR =0
SIGMA = 0.0001
POTIM =0.100
LCHARG = FALSE 
LWAVE = FALSE 
NELM = 100
ISYM = 0
IVDW = 12
VOSKOWN = 1
NCORE=20
LPLANE=.TRUE.
LREAL=Auto